
Gurobi 7.0.2 (linux64, Matlab) logging started Sun Sep  2 08:55:50 2018


Gurobi 7.0.2 (linux64) logging started Sun Sep  2 08:55:50 2018

Optimize a model with 49884 rows, 53364 columns and 298482 nonzeros
Coefficient statistics:
  Matrix range     [3e-01, 4e+07]
  Objective range  [1e+02, 8e+08]
  Bounds range     [5e-01, 1e+07]
  RHS range        [8e+00, 8e+07]
Iteration    Objective       Primal Inf.    Dual Inf.      Time
       0    7.6973204e+13   0.000000e+00   2.616644e-04      0s
       2    7.6973204e+13   0.000000e+00   0.000000e+00      0s

Solved in 2 iterations and 0.03 seconds
Optimal objective  7.697320425e+13
